CapLotSizing_PM/src/Instancias/TCLSLT/6i12p2m/NBB00.OUT
 CG ITER, OVMR, OVMRUB =           1   16650.3281250   16650.3281250
 CG ITER, OVMR, OVMRUB =           2   16616.9628906   16650.3281250
 CG ITER, OVMR, OVMRUB =           3   14658.2207031   16650.3281250
 CG ITER, OVMR, OVMRUB =           4   14724.9697266   16650.3281250
 CG ITER, OVMR, OVMRUB =           5   13207.5302734   16650.3281250
 CG ITER, OVMR, OVMRUB =           6   13841.2060547   16650.3281250
 CG ITER, OVMR, OVMRUB =           7   14558.8193359   16650.3281250
 CG ITER, OVMR, OVMRUB =           8   15038.3398438   16650.3281250
 CG ITER, OVMR, OVMRUB =           9   15325.2314453   16650.3281250
 CG ITER, OVMR, OVMRUB =          10   15359.7011719   16650.3281250
 CG ITER, OVMR, OVMRUB =          11   15371.9033203   16650.3281250
 CG ITER, OVMR, OVMRUB =          12   15353.3623047   16650.3281250
 CG ITER, OVMR, OVMRUB =          13   15339.7001953   16650.3281250
 CG ITER, OVMR, OVMRUB =          14   15335.7451172   16650.3281250
 CG ITER, OVMR, OVMRUB =          15   15335.5390625   16650.3281250
 CG ITER, OVMR, OVMRUB =          16   15337.2187500   16650.3281250
 CG ITER, OVMR, OVMRUB =          17   15337.9902344   16650.3281250
 CG ITER, OVMR, OVMRUB =          18   15337.0478516   16650.3281250
 CG ITER, OVMR, OVMRUB =          19   15338.6660156   16650.3281250
 CG ITER, OVMR, OVMRUB =          20   15339.7919922   16650.3281250
 CG ITER, OVMR, OVMRUB =          21   15339.0087891   16650.3281250
 CG ITER, OVMR, OVMRUB =          22   15338.2031250   16650.3281250
 CG ITER, OVMR, OVMRUB =          23   15338.4755859   16650.3281250
 CG ITER, OVMR, OVMRUB =          24   15338.6484375   16650.3281250
 CG ITER, OVMR, OVMRUB =          25   15338.2607422   16650.3281250
OVLB =   15338.2607422 OVLUB =   16650.3281250 TIME =       3.2200000
